%%%mzn-stat: initTime=0.017408928
%%%mzn-stat: objective=304
%%%mzn-stat: nodes=133938
%%%mzn-stat: restarts=161
%%%mzn-stat: peakDepth=454
%%%mzn-stat: solveTime=13.103193797
%%%mzn-stat: variables=1562
%%%mzn-stat: propagators=1181
%%%mzn-stat: failures=35723
%%%mzn-stat: propagations=4143198
%%%mzn-stat: nogoods=35723
%%%mzn-stat: AverageConflictSize=31.877473896369285
%%%mzn-stat: NumUnitNogoodsLearned=303
%%%mzn-stat: AverageLearnedNogoodLength=48.87002771323797
%%%mzn-stat: AverageBacktrackAmount=0
%%%mzn-stat: AverageLbd=22.797105506256475
%%%mzn-stat-end
maxleg = 304;
succ = array1d(1..50,[29, 5, 41, 42, 27, 24, 12, 14, 32, 20, 13, 9, 3, 33, 18, 22, 28, 35, 43, 16, 50, 39, 11, 1, 31, 46, 34, 45, 36, 44, 37, 17, 10, 38, 48, 2, 49, 15, 25, 19, 21, 23, 47, 40, 26, 8, 6, 7, 4, 30]);
% time elapsed: 14.52 s
----------
==========
% time elapsed: 14.52 s
%%%mzn-stat: initTime=0.017408928
%%%mzn-stat: objective=304
%%%mzn-stat: nodes=133938
%%%mzn-stat: restarts=161
%%%mzn-stat: peakDepth=454
%%%mzn-stat: solveTime=13.103199186
%%%mzn-stat: variables=1562
%%%mzn-stat: propagators=1181
%%%mzn-stat: failures=35723
%%%mzn-stat: propagations=4143198
%%%mzn-stat: nogoods=35723
%%%mzn-stat: AverageConflictSize=31.877473896369285
%%%mzn-stat: NumUnitNogoodsLearned=303
%%%mzn-stat: AverageLearnedNogoodLength=48.87002771323797
%%%mzn-stat: AverageBacktrackAmount=0
%%%mzn-stat: AverageLbd=22.797105506256475
%%%mzn-stat-end
